wmc_benchmarks/WMCBenchSingleMea/qpeexact_nativegates_ibm_qiskit_opt0_3.qasm.cnf
p cnf 76 274
c p weight -7 1 0
c p weight 7 -1 0
c p weight 11 6.12323399573676603586882014729198302312846062338790031898128063403419218957424163818359375E-17 0
c p weight -11 1 0
c p weight 12 1 0
c p weight -12 1 0
c p weight -9 1 0
c p weight 9 -1 0
c p weight -13 1 0
c p weight 13 -1 0
c p weight -15 1 0
c p weight 15 -1 0
c p weight 19 6.12323399573676603586882014729198302312846062338790031898128063403419218957424163818359375E-17 0
c p weight -19 1 0
c p weight 20 1 0
c p weight -20 1 0
c p weight -17 1 0
c p weight 17 -1 0
c p weight -21 1 0
c p weight 21 -1 0
c p weight -23 1 0
c p weight 23 -1 0
c p weight -24 1 0
c p weight 24 -1 0
c p weight -26 1 0
c p weight 26 -1 0
c p weight -29 1 0
c p weight 29 -1 0
c p weight -31 1 0
c p weight 31 -1 0
c p weight -34 1 0
c p weight 34 -1 0
c p weight -36 1 0
c p weight 36 -1 0
c p weight -39 1 0
c p weight 39 -1 0
c p weight -42 1 0
c p weight 42 -1 0
c p weight -45 1 0
c p weight 45 -1 0
c p weight 49 6.12323399573676603586882014729198302312846062338790031898128063403419218957424163818359375E-17 0
c p weight -49 1 0
c p weight 50 1 0
c p weight -50 1 0
c p weight -47 1 0
c p weight 47 -1 0
c p weight -51 1 0
c p weight 51 -1 0
c p weight 55 0.70710678118654752440084436210485 0
c p weight -55 1 0
c p weight -53 1 0
c p weight 53 -1 0
c p weight -56 1 0
c p weight 56 -1 0
c p weight 61 0.70710678118654752440084436210485 0
c p weight -61 1 0
c p weight -59 1 0
c p weight 59 -1 0
c p weight -62 1 0
c p weight 62 -1 0
c p weight 67 0.70710678118654752440084436210485 0
c p weight -67 1 0
c p weight -65 1 0
c p weight 65 -1 0
c p weight -68 1 0
c p weight 68 -1 0
c p weight 72 6.12323399573676603586882014729198302312846062338790031898128063403419218957424163818359375E-17 0
c p weight -72 1 0
c p weight 73 1 0
c p weight -73 1 0
c p weight -70 1 0
c p weight 70 -1 0
c p weight -74 1 0
c p weight 74 -1 0
c p weight 76 0.5 0
c p weight -76 1 0
76 0
-5 0
-3 0
-1 0
-7 1 0
-7 2 0
7 -1 -2 0
8 1 -2 0
8 -1 2 0
-8 1 2 0
-8 -1 -2 0
-9 10 0
-9 8 0
-9 -1 0
9 -10 1 -8 0
10 -1 8 0
-10 1 8 0
-11 8 0
10 -11 -1 0
-10 -11 1 0
10 11 1 -8 0
-10 11 -1 -8 0
-12 8 0
10 -12 1 0
-10 -12 -1 0
10 12 -1 -8 0
-10 12 1 -8 0
-13 10 0
-13 8 0
13 -10 -8 0
14 10 -8 0
14 -10 8 0
-14 10 8 0
-14 -10 -8 0
-15 3 0
-15 4 0
15 -3 -4 0
16 3 -4 0
16 -3 4 0
-16 3 4 0
-16 -3 -4 0
-17 18 0
-17 16 0
-17 -3 0
17 -18 3 -16 0
18 -3 16 0
-18 3 16 0
-19 16 0
18 -19 -3 0
-18 -19 3 0
18 19 3 -16 0
-18 19 -3 -16 0
-20 16 0
18 -20 3 0
-18 -20 -3 0
18 20 -3 -16 0
-18 20 3 -16 0
-21 18 0
-21 16 0
21 -18 -16 0
22 18 -16 0
22 -18 16 0
-22 18 16 0
-22 -18 -16 0
23 -6 0
-23 6 0
-24 5 0
-24 6 0
24 -5 -6 0
25 5 -6 0
25 -5 6 0
-25 5 6 0
-25 -5 -6 0
-26 5 0
-26 14 0
-26 10 -25 0
-26 -10 25 0
26 -5 10 25 -14 0
26 -5 -10 -25 -14 0
28 5 -10 0
28 -5 10 0
-28 5 10 0
-28 -5 -10 0
27 25 -14 0
27 -25 14 0
-27 25 14 0
-27 -25 -14 0
-29 28 0
-29 -14 0
29 -28 14 0
30 28 -14 0
30 -28 14 0
-30 28 14 0
-30 -28 -14 0
-31 5 0
-31 30 0
-31 28 -27 0
-31 -28 27 0
31 -5 28 27 -30 0
31 -5 -28 -27 -30 0
33 5 -28 0
33 -5 28 0
-33 5 28 0
-33 -5 -28 0
32 27 -30 0
32 -27 30 0
-32 27 30 0
-32 -27 -30 0
-34 33 0
-34 30 0
34 -33 -30 0
35 33 -30 0
35 -33 30 0
-35 33 30 0
-35 -33 -30 0
-36 33 0
-36 22 0
-36 18 -35 0
-36 -18 35 0
36 -33 18 35 -22 0
36 -33 -18 -35 -22 0
38 33 -18 0
38 -33 18 0
-38 33 18 0
-38 -33 -18 0
37 35 -22 0
37 -35 22 0
-37 35 22 0
-37 -35 -22 0
-39 38 0
-39 37 0
-39 33 -22 0
-39 -33 22 0
39 -38 33 22 -37 0
39 -38 -33 -22 -37 0
41 38 -33 0
41 -38 33 0
-41 38 33 0
-41 -38 -33 0
40 22 -37 0
40 -22 37 0
-40 22 37 0
-40 -22 -37 0
-42 41 0
-42 40 0
-42 38 -37 0
-42 -38 37 0
42 -41 38 37 -40 0
42 -41 -38 -37 -40 0
44 41 -38 0
44 -41 38 0
-44 41 38 0
-44 -41 -38 0
43 37 -40 0
43 -37 40 0
-43 37 40 0
-43 -37 -40 0
-45 41 0
-45 43 0
45 -41 -43 0
46 41 -43 0
46 -41 43 0
-46 41 43 0
-46 -41 -43 0
-47 48 0
-47 46 0
-47 -41 0
47 -48 41 -46 0
48 -41 46 0
-48 41 46 0
-49 46 0
48 -49 -41 0
-48 -49 41 0
48 49 41 -46 0
-48 49 -41 -46 0
-50 46 0
48 -50 41 0
-48 -50 -41 0
48 50 -41 -46 0
-48 50 41 -46 0
-51 48 0
-51 46 0
51 -48 -46 0
52 48 -46 0
52 -48 46 0
-52 48 46 0
-52 -48 -46 0
-53 54 0
-53 44 0
-53 -40 0
53 -54 -44 40 0
54 44 -40 0
-54 44 40 0
55 -44 0
-55 44 0
-56 44 0
-56 52 0
-56 48 -54 0
-56 -48 54 0
56 -44 48 54 -52 0
56 -44 -48 -54 -52 0
58 44 -48 0
58 -44 48 0
-58 44 48 0
-58 -44 -48 0
57 54 -52 0
57 -54 52 0
-57 54 52 0
-57 -54 -52 0
-59 58 0
-59 52 0
-59 -60 0
59 60 -58 -52 0
60 58 -52 0
-60 58 52 0
61 -58 0
-61 58 0
-62 44 0
-62 60 0
-62 58 -57 0
-62 -58 57 0
62 -44 58 57 -60 0
62 -44 -58 -57 -60 0
64 44 -58 0
64 -44 58 0
-64 44 58 0
-64 -44 -58 0
63 57 -60 0
63 -57 60 0
-63 57 60 0
-63 -57 -60 0
-65 66 0
-65 64 0
-65 -60 0
65 -66 -64 60 0
66 64 -60 0
-66 64 60 0
67 -64 0
-67 64 0
-68 44 0
-68 63 0
68 -44 -63 0
69 44 -63 0
69 -44 63 0
-69 44 63 0
-69 -44 -63 0
-70 71 0
-70 69 0
-70 -44 0
70 -71 44 -69 0
71 -44 69 0
-71 44 69 0
-72 69 0
71 -72 -44 0
-71 -72 44 0
71 72 44 -69 0
-71 72 -44 -69 0
-73 69 0
71 -73 44 0
-71 -73 -44 0
71 73 -44 -69 0
-71 73 44 -69 0
-74 71 0
-74 69 0
74 -71 -69 0
75 71 -69 0
75 -71 69 0
-75 71 69 0
-75 -71 -69 0
-64 0
-71 0
-75 0
-5 0
-32 0
